Academic license - for non-commercial use only
Gurobi Optimizer version 9.0.3 build v9.0.3rc0 (mac64)
Optimize a model with 415466 rows, 400800 columns and 2301950 nonzeros
Model fingerprint: 0xcc34e532
Variable types: 0 continuous, 400800 integer (400800 binary)
Coefficient statistics:
  Matrix range     [1e+00, 1e+00]
  Objective range  [1e+01, 1e+05]
  Bounds range     [1e+00, 1e+00]
  RHS range        [1e+00, 1e+03]
Presolve removed 6050 rows and 50 columns (presolve time = 6s) ...
Presolve added 0 rows and 5950 columns
Presolve removed 50 rows and 0 columns
Presolve time: 6.83s
Presolved: 415416 rows, 406750 columns, 1719850 nonzeros
Variable types: 0 continuous, 406750 integer (406750 binary)
Found heuristic solution: objective 656476.00000

Concurrent LP optimizer: dual simplex and barrier
Showing barrier log only...

Root barrier log...

Ordering time: 0.12s

Barrier statistics:
 Dense cols : 400
 AA' NZ     : 1.332e+06
 Factor NZ  : 5.533e+06 (roughly 400 MBytes of memory)
 Factor Ops : 1.335e+09 (less than 1 second per iteration)
 Threads    : 3

                  Objective                Residual
Iter       Primal          Dual         Primal    Dual     Compl     Time
   0   5.34592974e+08 -7.69314054e+08  6.15e+02 2.88e+01  2.83e+04    14s
   1   4.23865761e+06 -7.68801211e+08  1.82e+01 8.90e+03  1.09e+03    15s
   2   1.93371136e+06 -1.99282442e+08  6.32e+00 1.52e+03  2.99e+02    15s
   3   1.31721246e+06 -5.44603738e+07  3.13e+00 3.59e+02  8.56e+01    16s
   4   7.12662925e+05 -9.95010630e+06  2.21e-02 6.58e+00  8.81e+00    16s
   5   6.68489407e+05 -6.30253771e+05  6.65e-04 1.91e+00  1.06e+00    17s
   6   6.29414611e+05  2.92903646e+05  3.88e-04 3.16e-01  2.75e-01    18s
   7   6.13223916e+05  4.02124332e+05  3.31e-04 1.57e-01  1.73e-01    19s
   8   6.07441150e+05  4.28891344e+05  3.13e-04 1.16e-01  1.46e-01    19s
   9   5.99223871e+05  4.46136436e+05  2.86e-04 8.76e-02  1.25e-01    20s
  10   5.92329346e+05  4.58649125e+05  2.64e-04 6.70e-02  1.09e-01    20s
  11   5.80987808e+05  4.67878814e+05  2.31e-04 5.24e-02  9.25e-02    21s
  12   5.69933656e+05  4.80615178e+05  2.02e-04 3.19e-02  7.31e-02    22s
  13   5.63753599e+05  4.85164643e+05  1.86e-04 2.46e-02  6.43e-02    22s
  14   5.55084731e+05  4.88720890e+05  1.63e-04 1.85e-02  5.43e-02    23s
  15   5.50991302e+05  4.91059390e+05  1.52e-04 1.53e-02  4.90e-02    24s
  16   5.46123357e+05  4.92809623e+05  1.38e-04 1.25e-02  4.36e-02    24s
  17   5.43383607e+05  4.94688011e+05  1.30e-04 9.72e-03  3.98e-02    25s
  18   5.39082663e+05  4.95618117e+05  1.18e-04 8.14e-03  3.55e-02    26s
  19   5.33413427e+05  4.96499562e+05  1.02e-04 6.71e-03  3.02e-02    26s
  20   5.29793497e+05  4.97287785e+05  9.18e-05 5.53e-03  2.66e-02    27s
  21   5.23944259e+05  4.97969615e+05  7.41e-05 4.64e-03  2.12e-02    28s
  22   5.21858869e+05  4.98645138e+05  6.78e-05 3.73e-03  1.90e-02    28s
  23   5.19329638e+05  4.99071370e+05  5.99e-05 3.17e-03  1.66e-02    29s
  24   5.17366988e+05  4.99485844e+05  5.36e-05 2.64e-03  1.46e-02    30s
  25   5.15135406e+05  4.99903775e+05  4.68e-05 2.11e-03  1.25e-02    30s
  26   5.13771053e+05  5.00266572e+05  4.25e-05 1.67e-03  1.10e-02    31s
  27   5.11872834e+05  5.00524491e+05  3.63e-05 1.35e-03  9.28e-03    32s
  28   5.10837521e+05  5.00743721e+05  3.27e-05 1.09e-03  8.26e-03    32s
  29   5.09409898e+05  5.00957126e+05  2.81e-05 8.43e-04  6.91e-03    33s
  30   5.08472384e+05  5.01099828e+05  2.51e-05 6.84e-04  6.03e-03    34s
  31   5.06967730e+05  5.01178449e+05  1.99e-05 6.00e-04  4.73e-03    34s
  32   5.06165031e+05  5.01232111e+05  1.70e-05 5.45e-04  4.03e-03    35s
  33   5.05822265e+05  5.01355180e+05  1.58e-05 4.36e-04  3.65e-03    36s
  34   5.05266381e+05  5.01428341e+05  1.41e-05 3.58e-04  3.14e-03    36s
  35   5.04916874e+05  5.01470556e+05  1.27e-05 3.22e-04  2.82e-03    37s
  36   5.04546770e+05  5.01517648e+05  1.13e-05 2.81e-04  2.48e-03    38s
  37   5.04142352e+05  5.01535153e+05  9.71e-06 2.64e-04  2.13e-03    38s
  38   5.03837991e+05  5.01562604e+05  8.56e-06 2.37e-04  1.86e-03    39s
  39   5.03607055e+05  5.01596514e+05  7.67e-06 2.03e-04  1.64e-03    40s
  40   5.03437622e+05  5.01629966e+05  6.96e-06 1.71e-04  1.48e-03    40s
  41   5.03162045e+05  5.01659419e+05  5.84e-06 1.42e-04  1.23e-03    41s
  42   5.03038624e+05  5.01677691e+05  5.34e-06 1.25e-04  1.11e-03    42s
  43   5.02929980e+05  5.01715904e+05  4.90e-06 9.26e-05  9.93e-04    42s
  44   5.02739717e+05  5.01725282e+05  4.08e-06 8.34e-05  8.30e-04    43s
  45   5.02701820e+05  5.01733929e+05  3.91e-06 7.55e-05  7.92e-04    44s
  46   5.02566429e+05  5.01748125e+05  3.32e-06 6.21e-05  6.69e-04    44s
  47   5.02500956e+05  5.01762086e+05  3.03e-06 5.14e-05  6.04e-04    45s
  48   5.02432579e+05  5.01770019e+05  2.72e-06 4.43e-05  5.42e-04    46s
  49   5.02326235e+05  5.01778020e+05  2.28e-06 3.73e-05  4.48e-04    46s
  50   5.02271751e+05  5.01782844e+05  2.06e-06 3.32e-05  4.00e-04    47s
  51   5.02249576e+05  5.01786702e+05  1.96e-06 3.04e-05  3.79e-04    48s
  52   5.02185033e+05  5.01793311e+05  1.68e-06 2.57e-05  3.20e-04    48s
  53   5.02149719e+05  5.01796717e+05  1.51e-06 2.27e-05  2.89e-04    49s
  54   5.02089344e+05  5.01800299e+05  1.25e-06 1.97e-05  2.36e-04    49s
  55   5.02053741e+05  5.01803494e+05  1.10e-06 1.71e-05  2.05e-04    50s
  56   5.02041070e+05  5.01805640e+05  1.04e-06 1.54e-05  1.93e-04    51s
  57   5.02017126e+05  5.01809332e+05  9.28e-07 1.26e-05  1.70e-04    51s
  58   5.01969891e+05  5.01811742e+05  7.09e-07 1.08e-05  1.29e-04    52s
  59   5.01963403e+05  5.01812533e+05  6.79e-07 1.03e-05  1.23e-04    52s
  60   5.01943067e+05  5.01815140e+05  5.83e-07 8.37e-06  1.05e-04    53s
  61   5.01934359e+05  5.01816774e+05  5.40e-07 7.15e-06  9.62e-05    54s
  62   5.01917824e+05  5.01818889e+05  4.65e-07 5.63e-06  8.09e-05    54s
  63   5.01899717e+05  5.01821709e+05  3.70e-07 3.88e-06  6.38e-05    55s
  64   5.01886357e+05  5.01822556e+05  3.04e-07 3.14e-06  5.22e-05    55s
  65   5.01869938e+05  5.01823768e+05  2.19e-07 2.32e-06  3.78e-05    56s
  66   5.01865147e+05  5.01824895e+05  1.94e-07 1.71e-06  3.29e-05    57s
  67   5.01858558e+05  5.01825479e+05  1.62e-07 1.32e-06  2.71e-05    57s
  68   5.01851116e+05  5.01826032e+05  1.24e-07 1.00e-06  2.05e-05    58s
  69   5.01844890e+05  5.01826309e+05  9.23e-08 8.46e-07  1.52e-05    58s
  70   5.01841620e+05  5.01826673e+05  7.43e-08 6.36e-07  1.22e-05    59s
  71   5.01836432e+05  5.01827107e+05  4.55e-08 4.30e-07  7.63e-06    59s
  72   5.01833819e+05  5.01827481e+05  3.12e-08 2.53e-07  5.18e-06    60s
  73   5.01832037e+05  5.01827618e+05  2.14e-08 1.69e-07  3.61e-06    60s
  74   5.01830370e+05  5.01827732e+05  1.23e-08 1.19e-07  2.16e-06    61s
  75   5.01829664e+05  5.01827805e+05  8.42e-09 8.85e-08  1.52e-06    61s
  76   5.01829028e+05  5.01827856e+05  4.98e-09 7.04e-08  9.59e-07    62s
  77   5.01828446e+05  5.01827908e+05  1.88e-09 5.33e-08  4.40e-07    62s
  78   5.01828259e+05  5.01828007e+05  9.24e-10 2.07e-08  2.06e-07    63s
  79   5.01828132e+05  5.01828030e+05  2.86e-10 1.19e-08  8.29e-08    63s
  80   5.01828080e+05  5.01828053e+05  4.12e-11 5.22e-09  2.23e-08    64s
  81   5.01828080e+05  5.01828053e+05  6.36e-10 5.22e-09  2.23e-08    64s
  82   5.01828080e+05  5.01828053e+05  6.36e-10 5.22e-09  2.23e-08    65s
  83   5.01828080e+05  5.01828053e+05  6.36e-10 4.80e-10  2.23e-08    65s

Barrier solved model in 83 iterations and 65.24 seconds
Optimal objective 5.01828080e+05


Root crossover log...

  186304 DPushes remaining with DInf 5.8441832e-01                66s
       0 DPushes remaining with DInf 0.0000000e+00                68s

    2600 PPushes remaining with PInf 1.0285294e-05                68s
       0 PPushes remaining with PInf 0.0000000e+00                68s

  Push phase complete: Pinf 0.0000000e+00, Dinf 1.9950799e-01     68s


Root simplex log...

Iteration    Objective       Primal Inf.    Dual Inf.      Time
   39517    5.0182807e+05   0.000000e+00   1.995080e-01     69s
   39523    5.0182807e+05   0.000000e+00   0.000000e+00     69s

Solved with barrier

Root relaxation: objective 5.018281e+05, 39523 iterations, 56.94 seconds
Total elapsed time = 72.20s

    Nodes    |    Current Node    |     Objective Bounds      |     Work
 Expl Unexpl |  Obj  Depth IntInf | Incumbent    BestBd   Gap | It/Node Time

     0     0 501828.070    0 43007 656476.000 501828.070  23.6%     -   74s
     0     0 501828.819    0 43011 656476.000 501828.819  23.6%     -  149s
     0     0 501829.715    0 43004 656476.000 501829.715  23.6%     -  193s
     0     0 501829.715    0 43004 656476.000 501829.715  23.6%     -  235s
     0     2 501830.159    0 43004 656476.000 501830.159  23.6%     -  300s

Cutting planes:
  Gomory: 2

Explored 1 nodes (56638 simplex iterations) in 300.15 seconds
Thread count was 8 (of 8 available processors)

Solution count 1: 656476 

Time limit reached
Best objective 6.564760000000e+05, best bound 5.018301593389e+05, gap 23.5570%

User-callback calls 31087, time in user-callback 0.32 sec
Solution written to /Users/mdeboute/Desktop/Etudes/Master/M2/S9/GOPP/Projet/multi-period-flp/solution/instSingle_I50_J1000_T8_1_result.txt
